1 100 539
1 1 4 1 4 2 1 3 3 2
2
9 5
0 35.0 35.0 0.0 0.0 0 230
2 41.0 49.0 10.0 10.0 0 204 26 1 0 0 0 0 0 1 0 0 1
3 35.0 17.0 10.0 7.0 0 202 37 1 0 0 1 0 0 0 0 0 0
4 55.0 45.0 10.0 13.0 0 197 0 0 0 0 0 0 0 0 0 1 0
5 55.0 20.0 10.0 19.0 139 169 70 0 1 0 1 1 0 0 1 0 0
6 15.0 30.0 10.0 26.0 0 199 28 0 0 0 0 0 1 0 0 0 0
7 25.0 30.0 10.0 3.0 89 119 56 0 0 0 1 0 0 0 1 0 0
8 20.0 50.0 10.0 5.0 0 198 30 0 0 1 1 0 0 0 0 0 0
9 10.0 43.0 10.0 9.0 85 115 25 0 0 0 0 0 0 0 1 1 1
10 55.0 60.0 10.0 16.0 87 117 9 0 0 1 0 1 0 0 0 0 0
11 30.0 60.0 10.0 16.0 114 144 8 0 0 0 0 0 1 0 0 0 0
12 20.0 65.0 10.0 12.0 57 87 85 0 0 0 0 0 0 0 1 1 0
13 50.0 35.0 10.0 19.0 0 205 4 0 0 0 0 0 1 0 0 0 0
14 30.0 25.0 10.0 23.0 149 179 30 0 0 0 0 1 0 0 0 0 0
15 15.0 10.0 10.0 20.0 32 62 38 0 0 0 1 1 0 0 0 0 0
16 30.0 5.0 10.0 8.0 51 81 24 0 0 0 0 0 1 0 0 0 0
17 10.0 20.0 10.0 19.0 65 95 83 1 0 0 0 1 0 0 1 0 1
18 5.0 30.0 10.0 2.0 147 177 11 0 0 0 0 0 1 0 0 0 0
19 20.0 40.0 10.0 12.0 77 107 7 0 1 0 0 0 0 0 0 0 0
20 15.0 60.0 10.0 17.0 66 96 26 0 0 0 0 1 0 0 1 0 0
21 45.0 65.0 10.0 9.0 116 146 78 1 0 0 0 0 1 0 0 0 0
22 45.0 20.0 10.0 11.0 0 201 12 0 1 0 0 0 0 0 0 1 0
23 45.0 10.0 10.0 18.0 87 117 17 0 0 0 0 0 0 0 1 1 0
24 55.0 5.0 10.0 29.0 58 88 32 0 0 0 0 0 1 0 0 0 0
25 65.0 35.0 10.0 3.0 143 173 32 0 0 1 0 0 1 1 0 0 1
26 65.0 20.0 10.0 6.0 156 186 27 1 0 0 0 1 0 0 0 0 0
27 45.0 30.0 10.0 17.0 0 208 6 0 0 0 0 0 1 0 0 0 0
28 35.0 40.0 10.0 16.0 27 57 21 0 1 0 0 0 1 1 0 0 0
29 41.0 37.0 10.0 16.0 29 59 51 0 0 0 0 0 1 0 0 0 1
30 64.0 42.0 10.0 9.0 53 83 73 0 0 0 0 0 1 0 1 0 1
31 40.0 60.0 10.0 21.0 61 91 90 0 0 1 0 0 0 1 0 0 0
32 31.0 52.0 10.0 27.0 0 202 38 0 0 1 0 0 0 0 1 0 0
33 35.0 69.0 10.0 23.0 131 161 65 0 0 0 0 0 0 0 1 0 1
34 53.0 52.0 10.0 11.0 27 57 65 0 1 0 0 0 0 0 0 0 0
35 65.0 55.0 10.0 14.0 0 183 44 0 0 0 1 0 0 0 0 0 0
36 63.0 65.0 10.0 8.0 133 163 31 1 0 0 0 0 1 0 0 0 0
37 2.0 60.0 10.0 5.0 41 71 89 0 0 0 0 0 0 1 0 0 0
38 20.0 20.0 10.0 8.0 0 198 42 0 0 0 0 0 0 0 0 0 1
39 5.0 5.0 10.0 16.0 73 103 60 0 0 0 0 1 0 0 0 0 0
40 60.0 12.0 10.0 31.0 34 64 93 0 0 0 0 0 0 1 1 1 1
41 40.0 25.0 10.0 9.0 75 105 17 0 0 0 0 0 1 1 0 0 0
42 42.0 7.0 10.0 5.0 87 117 2 0 1 1 0 0 0 1 0 0 0
43 24.0 12.0 10.0 5.0 25 55 8 0 0 0 0 0 0 0 0 1 0
44 23.0 3.0 10.0 7.0 122 152 60 0 0 0 1 0 0 0 0 0 0
45 11.0 14.0 10.0 18.0 59 89 52 0 0 0 0 0 1 0 0 0 0
46 6.0 38.0 10.0 16.0 29 59 40 0 0 0 1 0 1 0 0 0 0
47 2.0 48.0 10.0 1.0 107 137 5 0 0 0 0 1 0 0 0 1 0
48 8.0 56.0 10.0 27.0 41 71 44 1 1 1 0 0 0 0 1 0 0
49 13.0 52.0 10.0 36.0 0 192 9 0 0 0 0 0 0 1 0 0 0
50 6.0 68.0 10.0 30.0 98 128 51 0 0 0 0 0 1 0 0 0 0
51 47.0 47.0 10.0 13.0 0 203 8 0 0 0 0 0 0 0 1 0 0
52 49.0 58.0 10.0 10.0 78 108 71 0 0 0 0 0 1 0 0 0 0
53 27.0 43.0 10.0 9.0 0 208 94 1 0 0 1 0 1 0 0 0 1
54 37.0 31.0 10.0 14.0 85 115 32 0 0 0 0 0 0 1 0 1 0
55 57.0 29.0 10.0 18.0 130 160 66 0 0 0 0 1 0 0 0 1 0
56 63.0 23.0 10.0 2.0 126 156 9 0 0 1 0 0 0 0 0 0 0
57 53.0 12.0 10.0 6.0 120 150 94 0 0 0 1 1 1 0 0 0 1
58 32.0 12.0 10.0 7.0 91 121 37 0 0 0 0 0 0 1 0 0 0
59 36.0 26.0 10.0 18.0 180 210 9 0 0 1 1 0 0 1 0 0 0
60 21.0 24.0 10.0 28.0 0 202 61 0 0 0 0 0 0 0 0 1 0
61 17.0 34.0 10.0 3.0 152 182 66 0 0 0 0 0 1 0 0 0 0
62 12.0 24.0 10.0 13.0 66 96 89 0 0 0 0 0 0 1 0 0 0
63 24.0 58.0 10.0 19.0 48 78 85 0 0 0 0 1 1 0 0 0 0
64 27.0 69.0 10.0 10.0 34 64 6 1 1 0 0 0 0 1 0 0 0
65 15.0 77.0 10.0 9.0 63 93 83 0 0 0 1 0 0 0 0 0 1
66 62.0 77.0 10.0 20.0 49 79 4 1 0 0 0 0 0 1 0 0 0
67 49.0 73.0 10.0 25.0 117 147 40 0 0 0 0 0 0 0 0 1 1
68 67.0 5.0 10.0 25.0 73 103 86 0 0 0 0 0 1 0 0 0 1
69 56.0 39.0 10.0 36.0 132 162 40 0 1 0 0 0 0 0 0 0 0
70 37.0 47.0 10.0 6.0 40 70 65 0 0 0 1 0 0 0 0 0 0
71 37.0 56.0 10.0 5.0 168 198 79 1 1 1 0 0 0 1 0 0 0
72 57.0 68.0 10.0 15.0 67 97 38 1 0 0 1 0 0 0 0 0 1
73 47.0 16.0 10.0 25.0 0 197 46 1 0 0 0 0 0 1 0 0 0
74 44.0 17.0 10.0 9.0 68 98 27 0 0 0 0 0 0 1 0 0 1
75 46.0 13.0 10.0 8.0 139 169 89 0 0 1 0 1 0 0 1 0 0
76 49.0 11.0 10.0 18.0 0 192 29 1 0 0 0 0 1 0 1 1 0
77 49.0 42.0 10.0 13.0 63 93 92 1 0 1 0 1 0 0 0 0 0
78 53.0 43.0 10.0 14.0 169 199 99 0 0 0 0 0 0 0 0 0 1
79 61.0 52.0 10.0 3.0 86 116 17 0 0 0 0 0 1 0 0 0 0
80 57.0 48.0 10.0 23.0 82 112 64 0 0 0 0 0 0 1 0 0 1
81 56.0 37.0 10.0 6.0 168 198 0 0 0 0 0 0 1 0 0 0 0
82 55.0 54.0 10.0 26.0 84 114 1 1 0 1 0 0 0 0 0 0 0
83 15.0 47.0 10.0 16.0 0 196 12 0 0 1 0 1 1 0 0 1 0
84 14.0 37.0 10.0 11.0 0 198 56 0 0 0 1 0 1 1 0 0 0
85 11.0 31.0 10.0 7.0 91 121 80 0 0 1 0 0 0 0 0 1 0
86 16.0 22.0 10.0 41.0 0 196 90 0 0 0 1 1 1 0 0 0 0
87 4.0 18.0 10.0 35.0 84 114 44 0 1 1 0 0 0 0 1 0 0
88 28.0 18.0 10.0 26.0 83 113 60 0 0 0 1 0 0 0 0 0 0
89 26.0 52.0 10.0 9.0 64 94 71 0 0 0 0 0 1 0 0 0 0
90 26.0 35.0 10.0 15.0 166 196 62 0 1 0 0 0 0 0 0 1 0
91 31.0 67.0 10.0 3.0 85 115 89 1 0 1 0 0 0 0 0 0 1
92 15.0 19.0 10.0 1.0 0 194 54 1 1 0 0 1 1 0 0 0 1
93 22.0 22.0 10.0 2.0 18 48 60 1 0 0 1 0 0 0 0 0 1
94 18.0 24.0 10.0 22.0 169 199 84 0 0 0 0 0 1 0 0 0 0
95 26.0 27.0 10.0 27.0 0 207 83 0 0 0 0 0 1 0 0 0 0
96 25.0 24.0 10.0 20.0 0 205 39 0 0 1 0 1 0 0 0 1 1
97 22.0 27.0 10.0 11.0 0 204 10 0 0 1 0 0 0 0 0 0 0
98 25.0 21.0 10.0 12.0 123 153 42 1 0 0 1 0 0 0 0 0 1
99 19.0 21.0 10.0 10.0 0 198 81 0 0 0 0 1 0 0 0 0 1
100 20.0 26.0 10.0 9.0 73 103 67 0 0 0 0 0 1 0 0 0 0
101 18.0 18.0 10.0 17.0 165 195 1 0 1 0 1 0 0 0 0 1 0